JulietBench/Juliet_Based_Patch_Bench/FFmpeg/CWE-189-Numeric-Errors/CVE_2014_8549_550f3e9df3410b3dd975e590042c0d83e20a8da3/solveron2avc_decode_init_Snippet_patch2.smt2
; benchmark generated from python API
(set-info :status unknown)
(declare-fun R () (_ BitVec 32))
(assert
 (let (($x15 (and (distinct (_ bv1 32) R) true)))
 (let (($x17 (= (_ bv1 32) R)))
 (let (($x24 (or $x17 $x15)))
 (not $x24)))))
(check-sat)
